p edge 100 56
e 1 13
e 3 11
e 3 83
e 4 46
e 6 28
e 6 48
e 6 57
e 9 54
e 10 78
e 11 34
e 12 27
e 12 53
e 13 31
e 13 41
e 14 71
e 14 93
e 15 40
e 16 30
e 17 19
e 18 96
e 19 21
e 21 89
e 22 30
e 22 60
e 23 61
e 25 66
e 27 29
e 27 64
e 32 43
e 34 37
e 34 44
e 34 75
e 36 79
e 37 81
e 38 46
e 38 58
e 39 90
e 41 53
e 41 92
e 43 87
e 44 63
e 44 91
e 45 100
e 47 51
e 52 96
e 53 87
e 53 94
e 59 61
e 63 91
e 66 68
e 68 98
e 71 78
e 74 80
e 79 87
e 84 99
e 94 97
